objective value:                                  -12
t_n_1                                               1 	(obj:-1)
t_n_3                                               1 	(obj:-1)
t_n_427                                             1 	(obj:-1)
t_n_545                                             1 	(obj:-1)
t_n_647                                             1 	(obj:-1)
t_n_752                                             1 	(obj:-1)
t_n_781                                             1 	(obj:-1)
t_n_815                                             1 	(obj:-1)
t_n_874                                             1 	(obj:-1)
t_n_896                                             1 	(obj:-1)
t_n_994                                             1 	(obj:-1)
t_n_999                                             1 	(obj:-1)
